GLPSOL--GLPK LP/MIP Solver 5.0
Parameter(s) specified in the command line:
 --lp ../modeles/4_489.lp --log 4_489.log
Reading problem data from '../modeles/4_489.lp'...
1973 rows, 3920 columns, 13712 non-zeros
1956 integer variables, all of which are binary
5903 lines were read
GLPK Integer Optimizer 5.0
1973 rows, 3920 columns, 13712 non-zeros
1956 integer variables, all of which are binary
Preprocessing...
1944 constraint coefficient(s) were reduced
1973 rows, 3916 columns, 13708 non-zeros
1956 integer variables, all of which are binary
Scaling...
 A: min|aij| =  1.673e-05  max|aij| =  4.000e+00  ratio =  2.391e+05
GM: min|aij| =  4.522e-02  max|aij| =  2.211e+01  ratio =  4.890e+02
EQ: min|aij| =  2.045e-03  max|aij| =  1.000e+00  ratio =  4.890e+02
2N: min|aij| =  1.953e-03  max|aij| =  1.775e+00  ratio =  9.090e+02
Constructing initial basis...
Size of triangular part is 1973
Solving LP relaxation...
GLPK Simplex Optimizer 5.0
1973 rows, 3916 columns, 13708 non-zeros
      0: obj =   8.000000000e+00 inf =   1.950e+01 (9)
    107: obj =   4.999686350e-01 inf =   0.000e+00 (0)
*   339: obj =  -1.999937142e+00 inf =   4.414e-17 (0)
OPTIMAL LP SOLUTION FOUND
Integer optimization begins...
Long-step dual simplex will be used
+   339: mip =     not found yet >=              -inf        (1; 0)
+  1184: >>>>>  -1.999937142e+00 >=  -1.999937142e+00 < 0.1% (844; 0)
+  1184: mip =  -1.999937142e+00 >=     tree is empty   0.0% (0; 1687)
INTEGER OPTIMAL SOLUTION FOUND
Time used:   2.5 secs
Memory used: 5.8 Mb (6103674 bytes)
